NAME : portcgen-26-20
COMMENT : portcgen N=26, seed=20
TYPE : TSP
DIMENSION : 26
EDGE_WEIGHT_TYPE : EUC_2D
NODE_COORD_SECTION
1 284881 -80965
2 -112349 -21465
3 -538871 221457
4 162632 35959
5 98731 386443
6 -91222 -237093
7 3944 9257
8 -55933 -755826
9 98366 200846
10 123478 -111020
11 -124120 26449
12 80538 -141036
13 -207195 -116515
14 -143601 80181
15 405862 -376962
16 111736 -164249
17 172439 163565
18 67972 139144
19 -91004 -214867
20 125003 -183005
21 -110127 195223
22 -139964 -421560
23 -168895 -64574
24 -13609 -209277
25 82308 -100693
26 463255 -274401
